1635101
3,19,12,46,0,41,31,55,39,4,18,48,22,59,28,24,29,40,5,10,65,25,54,33,45,42,6,66,63,37,30,21,51,32,56,17,9,13,43,52,36,61,38,50,34,67,57,16,26,44,8,14,7,35,49,27,58,15,62,20,2,60,23,11,53,64,1,47,3